25
25
1
3
3600
741 750 783 858 893 1018 1288 1311 1458 1506 1578 1635 1693 1750 1899 2270 2474 2598 2711 2758 2789 2802 2835 2946 2964 
24 29 32 20 22 39 24 26 13 14 12 11 5 11 5 40 24 9 19 5 22 36 7 29 30 
